\ENCODING=ISO-8859-1
\Problem name: ilog.cplex

Maximize
 obj: 829 x(0)#0 + 618 x(1)#1 + 641 x(2)#2 + 992 x(3)#3 + 985 x(4)#4
      + 570 x(5)#5 + 650 x(6)#6 + 902 x(7)#7 + 1049 x(8)#8 + 571 x(9)#9
      + 567 x(10)#10 + 498 x(11)#11 + 600 x(12)#12 + 986 x(13)#13
      + 855 x(14)#14 + 688 x(15)#15 + 995 x(16)#16 + 962 x(17)#17
      + 644 x(18)#18 + 710 x(19)#19 + 632 x(20)#20 + 1068 x(21)#21
      + 735 x(22)#22 + 1087 x(23)#23 + 646 x(24)#24 + 780 x(25)#25
      + 655 x(26)#26 + 706 x(27)#27 + 1113 x(28)#28 + 550 x(29)#29
      + 625 x(30)#30 + 967 x(31)#31 + 1101 x(32)#32 + 551 x(33)#33
      + 963 x(34)#34 + 799 x(35)#35 + 472 x(36)#36 + 1134 x(37)#37
      + 692 x(38)#38 + 512 x(39)#39 + 852 x(40)#40 + 749 x(41)#41
      + 557 x(42)#42 + 1144 x(43)#43 + 707 x(44)#44 + 679 x(45)#45
      + 907 x(46)#46 + 789 x(47)#47 + 732 x(48)#48 + 556 x(49)#49
      + 784 x(50)#50 + 796 x(51)#51 + 702 x(52)#52 + 744 x(53)#53
      + 603 x(54)#54 + 917 x(55)#55 + 998 x(56)#56 + 527 x(57)#57
      + 949 x(58)#58 + 791 x(59)#59 + 883 x(60)#60 + 619 x(61)#61
      + 707 x(62)#62 + 383 x(63)#63 + 494 x(64)#64 + 477 x(65)#65
      + 822 x(66)#66 + 1137 x(67)#67 + 807 x(68)#68 + 615 x(69)#69
      + 935 x(70)#70 + 448 x(71)#71 + 743 x(72)#72 + 926 x(73)#73
      + 818 x(74)#74 + 669 x(75)#75 + 650 x(76)#76 + 798 x(77)#77
      + 509 x(78)#78 + 732 x(79)#79 + 842 x(80)#80 + 882 x(81)#81
      + 643 x(82)#82 + 752 x(83)#83 + 1063 x(84)#84 + 436 x(85)#85
      + 637 x(86)#86 + 652 x(87)#87 + 914 x(88)#88 + 510 x(89)#89
      + 749 x(90)#90 + 727 x(91)#91 + 731 x(92)#92 + 663 x(93)#93
      + 790 x(94)#94 + 888 x(95)#95 + 506 x(96)#96 + 545 x(97)#97
      + 872 x(98)#98 + 635 x(99)#99
Subject To
 c1: 502 x(0)#0 + 66 x(1)#1 + 229 x(2)#2 + 725 x(3)#3 + 461 x(4)#4 + 533 x(5)#5
     + 658 x(6)#6 + 340 x(7)#7 + 95 x(8)#8 + 501 x(9)#9 + 697 x(10)#10
     + 437 x(11)#11 + 172 x(12)#12 + 549 x(13)#13 + 801 x(14)#14 + 408 x(15)#15
     + 866 x(16)#16 + 475 x(17)#17 + 253 x(18)#18 + 467 x(19)#19 + 809 x(20)#20
     + 802 x(21)#21 + 683 x(22)#22 + 738 x(23)#23 + 160 x(24)#24 + 41 x(25)#25
     + 432 x(26)#26 + 538 x(27)#27 + 342 x(28)#28 + 957 x(29)#29 + 515 x(30)#30
     + 995 x(31)#31 + 824 x(32)#32 + 255 x(33)#33 + 712 x(34)#34 + 241 x(35)#35
     + 541 x(36)#36 + 806 x(37)#37 + 577 x(38)#38 + 313 x(39)#39 + 595 x(40)#40
     + 899 x(41)#41 + 676 x(42)#42 + 772 x(43)#43 + 560 x(44)#44 + 342 x(45)#45
     + 791 x(46)#46 + 253 x(47)#47 + 400 x(48)#48 + 180 x(49)#49 + 60 x(50)#50
     + 722 x(51)#51 + 945 x(52)#52 + 164 x(53)#53 + 116 x(54)#54 + 429 x(55)#55
     + 856 x(56)#56 + 102 x(57)#57 + 573 x(58)#58 + 623 x(59)#59 + 633 x(60)#60
     + 59 x(61)#61 + 235 x(62)#62 + 737 x(63)#63 + 376 x(64)#64 + 370 x(65)#65
     + 528 x(66)#66 + 546 x(67)#67 + 699 x(68)#68 + 352 x(69)#69 + 523 x(70)#70
     + 327 x(71)#71 + 412 x(72)#72 + 869 x(73)#73 + 841 x(74)#74 + 758 x(75)#75
     + 320 x(76)#76 + 230 x(77)#77 + 6 x(78)#78 + 409 x(79)#79 + 432 x(80)#80
     + 678 x(81)#81 + 562 x(82)#82 + 595 x(83)#83 + 778 x(84)#84 + 364 x(85)#85
     + 908 x(86)#86 + 188 x(87)#87 + 48 x(88)#88 + 291 x(89)#89 + 984 x(90)#90
     + 620 x(91)#91 + 627 x(92)#92 + 571 x(93)#93 + 720 x(94)#94 + 393 x(95)#95
     + 119 x(96)#96 + 43 x(97)#97 + 587 x(98)#98 + 448 x(99)#99 <= 12440
 c2: 430 x(0)#0 + 323 x(1)#1 + 712 x(2)#2 + 645 x(3)#3 + 833 x(4)#4
     + 762 x(5)#5 + 352 x(6)#6 + 411 x(7)#7 + 715 x(8)#8 + 141 x(9)#9
     + 887 x(10)#10 + 331 x(11)#11 + 388 x(12)#12 + 546 x(13)#13 + 817 x(14)#14
     + 813 x(15)#15 + 541 x(16)#16 + 144 x(17)#17 + 300 x(18)#18 + 311 x(19)#19
     + 264 x(20)#20 + 591 x(21)#21 + 657 x(22)#22 + 848 x(23)#23 + 101 x(24)#24
     + 862 x(25)#25 + 282 x(26)#26 + 66 x(27)#27 + 101 x(28)#28 + 401 x(29)#29
     + 322 x(30)#30 + 363 x(31)#31 + 471 x(32)#32 + 750 x(33)#33 + 871 x(34)#34
     + 523 x(35)#35 + 163 x(36)#36 + 428 x(37)#37 + 265 x(38)#38 + 284 x(39)#39
     + 338 x(40)#40 + 346 x(41)#41 + 616 x(42)#42 + 467 x(43)#43 + 401 x(44)#44
     + 464 x(45)#45 + 239 x(46)#46 + 712 x(47)#47 + 866 x(48)#48 + 129 x(49)#49
     + 202 x(50)#50 + 710 x(51)#51 + 353 x(52)#52 + 715 x(53)#53 + 176 x(54)#54
     + 395 x(55)#55 + 71 x(56)#56 + 644 x(57)#57 + 440 x(58)#58 + 247 x(59)#59
     + 616 x(60)#60 + 68 x(61)#61 + 598 x(62)#62 + 12 x(63)#63 + 421 x(64)#64
     + 83 x(65)#65 + 938 x(66)#66 + 602 x(67)#67 + 793 x(68)#68 + 745 x(69)#69
     + 924 x(70)#70 + 535 x(71)#71 + 20 x(72)#72 + 303 x(73)#73 + 586 x(74)#74
     + 953 x(75)#75 + 929 x(76)#76 + 536 x(77)#77 + 301 x(78)#78 + 396 x(79)#79
     + 87 x(80)#80 + 287 x(81)#81 + 575 x(82)#82 + 290 x(83)#83 + 714 x(84)#84
     + 407 x(85)#85 + 717 x(86)#86 + 189 x(87)#87 + 880 x(88)#88 + 813 x(89)#89
     + 996 x(90)#90 + 717 x(91)#91 + 283 x(92)#92 + 702 x(93)#93 + 797 x(94)#94
     + 650 x(95)#95 + 280 x(96)#96 + 344 x(97)#97 + 592 x(98)#98 + 512 x(99)#99
     <= 12184
 c3: 828 x(0)#0 + 553 x(1)#1 + 337 x(2)#2 + 862 x(3)#3 + 225 x(4)#4 + 41 x(5)#5
     + 933 x(6)#6 + 845 x(7)#7 + 980 x(8)#8 + 433 x(9)#9 + 139 x(10)#10
     + 809 x(11)#11 + 174 x(12)#12 + 769 x(13)#13 + 819 x(14)#14 + 641 x(15)#15
     + 460 x(16)#16 + 906 x(17)#17 + 816 x(18)#18 + 998 x(19)#19 + 112 x(20)#20
     + 608 x(21)#21 + 653 x(22)#22 + 341 x(23)#23 + 963 x(24)#24 + 453 x(25)#25
     + 968 x(26)#26 + 909 x(27)#27 + 985 x(28)#28 + 509 x(29)#29 + 184 x(30)#30
     + 807 x(31)#31 + 459 x(32)#32 + 726 x(33)#33 + 336 x(34)#34 + 800 x(35)#35
     + 818 x(36)#36 + 779 x(37)#37 + x(38)#38 + 656 x(39)#39 + 344 x(40)#40
     + 556 x(41)#41 + 177 x(42)#42 + 736 x(43)#43 + 263 x(44)#44 + 304 x(45)#45
     + 542 x(46)#46 + 813 x(47)#47 + 326 x(48)#48 + 718 x(49)#49 + 601 x(50)#50
     + 591 x(51)#51 + 216 x(52)#52 + 918 x(53)#53 + 394 x(54)#54 + 512 x(55)#55
     + 378 x(56)#56 + 970 x(57)#57 + 751 x(58)#58 + 957 x(59)#59 + 639 x(60)#60
     + 131 x(61)#61 + 116 x(62)#62 + 494 x(63)#63 + 662 x(64)#64 + 166 x(65)#65
     + 345 x(66)#66 + 725 x(67)#67 + 135 x(68)#68 + 843 x(69)#69 + 878 x(70)#70
     + 121 x(71)#71 + 600 x(72)#72 + 569 x(73)#73 + 735 x(74)#74 + 263 x(75)#75
     + 425 x(76)#76 + 803 x(77)#77 + 632 x(78)#78 + 5 x(79)#79 + 529 x(80)#80
     + 609 x(81)#81 + 328 x(82)#82 + 647 x(83)#83 + 575 x(84)#84 + 510 x(85)#85
     + 413 x(86)#86 + 541 x(87)#87 + 960 x(88)#88 + 932 x(89)#89 + 378 x(90)#90
     + 34 x(91)#91 + 515 x(92)#92 + 946 x(93)#93 + 226 x(94)#94 + 805 x(95)#95
     + 430 x(96)#96 + 969 x(97)#97 + 148 x(98)#98 + 14 x(99)#99 <= 13875
 c4: 839 x(0)#0 + 674 x(1)#1 + 396 x(2)#2 + 128 x(3)#3 + 569 x(4)#4
     + 631 x(5)#5 + 725 x(6)#6 + 552 x(7)#7 + 365 x(8)#8 + 292 x(9)#9
     + 649 x(10)#10 + 177 x(11)#11 + 372 x(12)#12 + 75 x(13)#13 + 76 x(14)#14
     + 614 x(15)#15 + 205 x(16)#16 + 33 x(17)#17 + 644 x(18)#18 + 660 x(19)#19
     + 996 x(20)#20 + 517 x(21)#21 + 905 x(22)#22 + 989 x(23)#23 + 284 x(24)#24
     + 498 x(25)#25 + 332 x(26)#26 + 589 x(27)#27 + 842 x(28)#28 + 337 x(29)#29
     + 656 x(30)#30 + 185 x(31)#31 + 834 x(32)#32 + 128 x(33)#33 + 291 x(34)#34
     + 789 x(35)#35 + 702 x(36)#36 + 935 x(37)#37 + 883 x(38)#38 + 66 x(39)#39
     + 721 x(40)#40 + 673 x(41)#41 + 897 x(42)#42 + 906 x(43)#43 + 408 x(44)#44
     + 645 x(45)#45 + 519 x(46)#46 + 244 x(47)#47 + 595 x(48)#48 + 15 x(49)#49
     + 464 x(50)#50 + 93 x(51)#51 + 254 x(52)#52 + 627 x(53)#53 + 284 x(54)#54
     + 436 x(55)#55 + 787 x(56)#56 + 50 x(57)#57 + 224 x(58)#58 + 220 x(59)#59
     + 459 x(60)#60 + 124 x(61)#61 + 607 x(62)#62 + 64 x(63)#63 + 889 x(64)#64
     + 172 x(65)#65 + 115 x(66)#66 + 904 x(67)#67 + 924 x(68)#68 + 169 x(69)#69
     + 841 x(70)#70 + 110 x(71)#71 + 536 x(72)#72 + 962 x(73)#73 + 192 x(74)#74
     + 295 x(75)#75 + 507 x(76)#76 + 879 x(77)#77 + 456 x(78)#78 + 433 x(79)#79
     + 865 x(80)#80 + 400 x(81)#81 + 762 x(82)#82 + 985 x(83)#83 + 591 x(84)#84
     + 502 x(85)#85 + 291 x(86)#86 + 601 x(87)#87 + 31 x(88)#88 + 211 x(89)#89
     + 207 x(90)#90 + 228 x(91)#91 + 160 x(92)#92 + 523 x(93)#93 + 328 x(94)#94
     + 10 x(95)#95 + 707 x(96)#96 + 423 x(97)#97 + 324 x(98)#98 + 194 x(99)#99
     <= 11869
 c5: 949 x(0)#0 + 517 x(1)#1 + 55 x(2)#2 + 290 x(3)#3 + 784 x(4)#4 + 129 x(5)#5
     + 21 x(6)#6 + 599 x(7)#7 + 792 x(8)#8 + 529 x(9)#9 + 46 x(10)#10
     + 542 x(11)#11 + 766 x(12)#12 + 707 x(13)#13 + 864 x(14)#14 + 166 x(15)#15
     + 878 x(16)#16 + 808 x(17)#17 + 61 x(18)#18 + 475 x(19)#19 + 657 x(20)#20
     + 933 x(21)#21 + 257 x(22)#22 + 596 x(23)#23 + 378 x(24)#24 + 685 x(25)#25
     + 506 x(26)#26 + 223 x(27)#27 + 928 x(28)#28 + 376 x(29)#29 + 421 x(30)#30
     + 369 x(31)#31 + 577 x(32)#32 + 194 x(33)#33 + 341 x(34)#34 + 824 x(35)#35
     + 73 x(36)#36 + 948 x(37)#37 + 618 x(38)#38 + 764 x(39)#39 + 469 x(40)#40
     + 682 x(41)#41 + 275 x(42)#42 + 609 x(43)#43 + 290 x(44)#44 + 873 x(45)#45
     + 147 x(46)#46 + 926 x(47)#47 + 772 x(48)#48 + 7 x(49)#49 + 860 x(50)#50
     + 963 x(51)#51 + 543 x(52)#52 + 119 x(53)#53 + 95 x(54)#54 + 764 x(55)#55
     + 560 x(56)#56 + 563 x(57)#57 + 959 x(58)#58 + 743 x(59)#59 + 57 x(60)#60
     + 641 x(61)#61 + 48 x(62)#62 + 63 x(63)#63 + 87 x(64)#64 + 145 x(65)#65
     + 338 x(66)#66 + 463 x(67)#67 + 947 x(68)#68 + 611 x(69)#69 + 494 x(70)#70
     + 190 x(71)#71 + 762 x(72)#72 + 851 x(73)#73 + 717 x(74)#74 + 908 x(75)#75
     + 758 x(76)#76 + 714 x(77)#77 + 123 x(78)#78 + 240 x(79)#79 + 712 x(80)#80
     + 59 x(81)#81 + 7 x(82)#82 + 199 x(83)#83 + 900 x(84)#84 + 18 x(85)#85
     + 183 x(86)#86 + 324 x(87)#87 + 938 x(88)#88 + 301 x(89)#89 + 325 x(90)#90
     + 915 x(91)#91 + 302 x(92)#92 + 472 x(93)#93 + 659 x(94)#94 + 595 x(95)#95
     + 79 x(96)#96 + 345 x(97)#97 + 584 x(98)#98 + 31 x(99)#99 <= 12243
Bounds
 0 <= x(0)#0 <= 1
 0 <= x(1)#1 <= 1
 0 <= x(2)#2 <= 1
 0 <= x(3)#3 <= 1
 0 <= x(4)#4 <= 1
 0 <= x(5)#5 <= 1
 0 <= x(6)#6 <= 1
 0 <= x(7)#7 <= 1
 0 <= x(8)#8 <= 1
 0 <= x(9)#9 <= 1
 0 <= x(10)#10 <= 1
 0 <= x(11)#11 <= 1
 0 <= x(12)#12 <= 1
 0 <= x(13)#13 <= 1
 0 <= x(14)#14 <= 1
 0 <= x(15)#15 <= 1
 0 <= x(16)#16 <= 1
 0 <= x(17)#17 <= 1
 0 <= x(18)#18 <= 1
 0 <= x(19)#19 <= 1
 0 <= x(20)#20 <= 1
 0 <= x(21)#21 <= 1
 0 <= x(22)#22 <= 1
 0 <= x(23)#23 <= 1
 0 <= x(24)#24 <= 1
 0 <= x(25)#25 <= 1
 0 <= x(26)#26 <= 1
 0 <= x(27)#27 <= 1
 0 <= x(28)#28 <= 1
 0 <= x(29)#29 <= 1
 0 <= x(30)#30 <= 1
 0 <= x(31)#31 <= 1
 0 <= x(32)#32 <= 1
 0 <= x(33)#33 <= 1
 0 <= x(34)#34 <= 1
 0 <= x(35)#35 <= 1
 0 <= x(36)#36 <= 1
 0 <= x(37)#37 <= 1
 0 <= x(38)#38 <= 1
 0 <= x(39)#39 <= 1
 0 <= x(40)#40 <= 1
 0 <= x(41)#41 <= 1
 0 <= x(42)#42 <= 1
 0 <= x(43)#43 <= 1
 0 <= x(44)#44 <= 1
 0 <= x(45)#45 <= 1
 0 <= x(46)#46 <= 1
 0 <= x(47)#47 <= 1
 0 <= x(48)#48 <= 1
 0 <= x(49)#49 <= 1
 0 <= x(50)#50 <= 1
 0 <= x(51)#51 <= 1
 0 <= x(52)#52 <= 1
 0 <= x(53)#53 <= 1
 0 <= x(54)#54 <= 1
 0 <= x(55)#55 <= 1
 0 <= x(56)#56 <= 1
 0 <= x(57)#57 <= 1
 0 <= x(58)#58 <= 1
 0 <= x(59)#59 <= 1
 0 <= x(60)#60 <= 1
 0 <= x(61)#61 <= 1
 0 <= x(62)#62 <= 1
 0 <= x(63)#63 <= 1
 0 <= x(64)#64 <= 1
 0 <= x(65)#65 <= 1
 0 <= x(66)#66 <= 1
 0 <= x(67)#67 <= 1
 0 <= x(68)#68 <= 1
 0 <= x(69)#69 <= 1
 0 <= x(70)#70 <= 1
 0 <= x(71)#71 <= 1
 0 <= x(72)#72 <= 1
 0 <= x(73)#73 <= 1
 0 <= x(74)#74 <= 1
 0 <= x(75)#75 <= 1
 0 <= x(76)#76 <= 1
 0 <= x(77)#77 <= 1
 0 <= x(78)#78 <= 1
 0 <= x(79)#79 <= 1
 0 <= x(80)#80 <= 1
 0 <= x(81)#81 <= 1
 0 <= x(82)#82 <= 1
 0 <= x(83)#83 <= 1
 0 <= x(84)#84 <= 1
 0 <= x(85)#85 <= 1
 0 <= x(86)#86 <= 1
 0 <= x(87)#87 <= 1
 0 <= x(88)#88 <= 1
 0 <= x(89)#89 <= 1
 0 <= x(90)#90 <= 1
 0 <= x(91)#91 <= 1
 0 <= x(92)#92 <= 1
 0 <= x(93)#93 <= 1
 0 <= x(94)#94 <= 1
 0 <= x(95)#95 <= 1
 0 <= x(96)#96 <= 1
 0 <= x(97)#97 <= 1
 0 <= x(98)#98 <= 1
 0 <= x(99)#99 <= 1
Generals
 x(0)#0  x(1)#1  x(2)#2  x(3)#3  x(4)#4  x(5)#5  x(6)#6  x(7)#7  x(8)#8 
 x(9)#9  x(10)#10  x(11)#11  x(12)#12  x(13)#13  x(14)#14  x(15)#15  x(16)#16 
 x(17)#17  x(18)#18  x(19)#19  x(20)#20  x(21)#21  x(22)#22  x(23)#23 
 x(24)#24  x(25)#25  x(26)#26  x(27)#27  x(28)#28  x(29)#29  x(30)#30 
 x(31)#31  x(32)#32  x(33)#33  x(34)#34  x(35)#35  x(36)#36  x(37)#37 
 x(38)#38  x(39)#39  x(40)#40  x(41)#41  x(42)#42  x(43)#43  x(44)#44 
 x(45)#45  x(46)#46  x(47)#47  x(48)#48  x(49)#49  x(50)#50  x(51)#51 
 x(52)#52  x(53)#53  x(54)#54  x(55)#55  x(56)#56  x(57)#57  x(58)#58 
 x(59)#59  x(60)#60  x(61)#61  x(62)#62  x(63)#63  x(64)#64  x(65)#65 
 x(66)#66  x(67)#67  x(68)#68  x(69)#69  x(70)#70  x(71)#71  x(72)#72 
 x(73)#73  x(74)#74  x(75)#75  x(76)#76  x(77)#77  x(78)#78  x(79)#79 
 x(80)#80  x(81)#81  x(82)#82  x(83)#83  x(84)#84  x(85)#85  x(86)#86 
 x(87)#87  x(88)#88  x(89)#89  x(90)#90  x(91)#91  x(92)#92  x(93)#93 
 x(94)#94  x(95)#95  x(96)#96  x(97)#97  x(98)#98  x(99)#99 
End
